solution status: optimal solution found
objective value:                     111844.353035338
d11(0,0)                                            1 	(obj:0)
d11(1,1)                                            1 	(obj:0)
d11(2,4)                                            1 	(obj:0)
d11(2,7)                                            1 	(obj:0)
d11(2,10)                                           1 	(obj:0)
d11(2,11)                                           1 	(obj:0)
d11(3,13)                                           1 	(obj:0)
d11(3,14)                                           1 	(obj:0)
d11(3,16)                                           1 	(obj:0)
d11(3,17)                                           1 	(obj:0)
d11(3,19)                                           1 	(obj:0)
d11(3,20)                                           1 	(obj:0)
d11(3,22)                                           1 	(obj:0)
d11(3,23)                                           1 	(obj:0)
d11(3,25)                                           1 	(obj:0)
d11(3,26)                                           1 	(obj:0)
d11(3,28)                                           1 	(obj:0)
d11(3,29)                                           1 	(obj:0)
d11(3,31)                                           1 	(obj:0)
d11(3,32)                                           1 	(obj:0)
d11(3,34)                                           1 	(obj:0)
d11(3,35)                                           1 	(obj:0)
d11(3,37)                                           1 	(obj:0)
d11(3,38)                                           1 	(obj:0)
d12(1,3)                                            1 	(obj:0)
d12(2,6)                                            1 	(obj:0)
d12(2,9)                                            1 	(obj:0)
d12(2,12)                                           1 	(obj:0)
d21(2,4)                                            1 	(obj:0)
d21(3,13)                                           1 	(obj:0)
d21(3,14)                                           1 	(obj:0)
d21(3,15)                                           1 	(obj:0)
d21(3,16)                                           1 	(obj:0)
d21(3,17)                                           1 	(obj:0)
d21(3,19)                                           1 	(obj:0)
d21(3,22)                                           1 	(obj:0)
d21(3,23)                                           1 	(obj:0)
d21(3,25)                                           1 	(obj:0)
d21(3,31)                                           1 	(obj:0)
STE(1,1)                             3350.23399666665 	(obj:0)
STE(0,0)                                         4725 	(obj:0)
STE(1,2)                                         4347 	(obj:0)
STE(1,3)                             5259.56333384999 	(obj:0)
STE(2,4)                             1975.46799333336 	(obj:0)
STE(2,5)                             2972.23399666665 	(obj:0)
STE(2,6)                             3884.79733051669 	(obj:0)
STE(2,7)                             2972.23399666671 	(obj:0)
STE(2,8)                             3969.00000000662 	(obj:0)
STE(2,9)                             4881.56333385004 	(obj:0)
STE(2,10)                             3884.7973305167 	(obj:0)
STE(2,11)                            4881.56333384999 	(obj:0)
STE(2,12)                            5794.12666770003 	(obj:0)
STE(3,13)                           -543.595340516628 	(obj:0)
STE(3,14)                            453.170662816663 	(obj:0)
STE(3,15)                            1597.46799333336 	(obj:0)
STE(3,16)                            453.170662816663 	(obj:0)
STE(3,17)                            1449.93666614995 	(obj:0)
STE(3,18)                            2594.23399666665 	(obj:0)
STE(3,19)                             1365.7339966667 	(obj:0)
STE(3,20)                            2362.49999999999 	(obj:0)
STE(3,21)                            3506.79733051669 	(obj:0)
STE(3,22)                            453.170662816722 	(obj:0)
STE(3,23)                            1449.93666615001 	(obj:0)
STE(3,24)                            2594.23399666671 	(obj:0)
STE(3,25)                            1449.93666615664 	(obj:0)
STE(3,26)                            2446.70266948993 	(obj:0)
STE(3,27)                            3591.00000000662 	(obj:0)
STE(3,28)                            2362.50000000005 	(obj:0)
STE(3,29)                            3359.26600333334 	(obj:0)
STE(3,30)                            4503.56333385004 	(obj:0)
STE(3,31)                            1365.73399666676 	(obj:0)
STE(3,32)                                      2362.5 	(obj:0)
STE(3,33)                             3506.7973305167 	(obj:0)
STE(3,34)                                      2362.5 	(obj:0)
STE(3,35)                            3359.26600333329 	(obj:0)
STE(3,36)                            4503.56333384999 	(obj:0)
STE(3,37)                            3275.06333385004 	(obj:0)
STE(3,38)                            4271.82933718333 	(obj:0)
STE(3,39)                            5416.12666770003 	(obj:0)
y1(3,23)                             1029.86759746503 	(obj:0)
y1(3,25)                             1926.95700046499 	(obj:0)
y1(3,26)                             1029.86759746503 	(obj:0)
y1(3,28)                             1926.95700046499 	(obj:0)
y1(3,29)                             1029.86759746503 	(obj:0)
y1(3,31)                             1926.95700046478 	(obj:0)
y1(3,32)                             1029.86759746503 	(obj:0)
y1(3,34)                             1926.95700046499 	(obj:0)
y1(3,35)                             1029.86759746503 	(obj:0)
y1(3,37)                             1926.95700046499 	(obj:0)
y1(3,38)                             1029.86759746503 	(obj:0)
BG(3)                                1137.37995021093 	(obj:10)
AVE(1)                               3199.95851117552 	(obj:0)
WB(2)                                3265.15049132519 	(obj:0)
AVE(2)                               3265.15049132519 	(obj:0)
AVE(3)                               3291.35535332476 	(obj:0)
WG(1)                                3199.95851117552 	(obj:10)
WG(3)                                3291.35535332476 	(obj:10)
BG(1)                                 177.89148882448 	(obj:10)
BG(2)                                3377.84999999995 	(obj:10)
y1(1,1)                              897.089403000015 	(obj:0)
y1(2,4)                              897.089402999962 	(obj:0)
y1(2,7)                              897.089402999962 	(obj:0)
y1(2,10)                             897.089402999962 	(obj:0)
y1(3,13)                             1926.95700046499 	(obj:0)
y1(3,14)                             1029.86759746503 	(obj:0)
y1(3,16)                             1926.95700046499 	(obj:0)
y1(3,17)                             1029.86759746503 	(obj:0)
y1(3,19)                             1926.95700046499 	(obj:0)
y1(3,20)                             1029.86759746503 	(obj:0)
y1(3,22)                             1926.95700046499 	(obj:0)
y2(1,3)                              960.592982999986 	(obj:0)
y2(2,6)                              960.592983000042 	(obj:0)
y2(2,8)                          6.97130348250183e-009 	(obj:0)
y2(2,9)                              960.592983000042 	(obj:0)
y2(2,12)                             960.592983000042 	(obj:0)
